100 100 100
50
57 86 74
93 95 80
92 86 75
4 12 14
35 42 35
55 50 88
82 71 77
87 100 22
94 77 34
5 82 67
71 92 86
95 39 79
47 38 43
81 28 74
94 60 92
51 84 84
63 78 91
94 37 87
99 86 61
90 64 83
4 70 69
70 55 66
83 86 15
91 62 72
73 97 51
96 55 51
59 65 68
74 74 48
17 41 32
100 69 65
92 98 96
87 51 88
79 58 71
71 84 4
66 62 54
86 66 63
93 79 92
89 58 55
80 86 52
93 58 65
71 68 65
46 8 18
82 62 52
96 30 80
54 55 81
86 68 62
75 83 27
56 97 53
37 21 14
87 52 53
